1 2
2 2
3 1
4 1
5 2
6 2
7 2
8 1
9 2
10 1
11 2
12 1
13 2
14 1
15 1
16 1
17 2
18 2
19 2
20 2
21 1
22 1
23 2
24 1
25 1
26 2
27 1
28 2
29 2
30 2
31 1
32 2
33 1
34 1
35 2
36 1
37 1
38 1
39 2
40 2
41 2
42 1
43 1
44 1
45 1
46 1
47 1
48 2
49 1
50 2
51 2
52 2
53 2
54 2
55 2
56 2
57 1
58 1
59 2
60 2
61 2
62 2
63 1
64 1
65 1
66 2
67 2
68 2
69 1
70 2
71 1
72 1
73 2
74 1
75 1
76 1
77 1
78 1
79 1
80 1
81 1
82 1
83 1
84 2
85 1
86 1
87 1
88 2
89 1
90 2
91 2
92 1
93 2
94 2
95 2
96 2
97 2
98 1
99 2
100 2
101 1
102 2
103 2
104 1
105 1
106 1
107 2
108 2
109 1
110 1
111 2
112 2
113 1
114 1
115 1
116 1
117 1
118 2
119 2
120 1
121 1
122 1
123 2
124 1
125 1
126 1
127 1
128 1
129 1
130 2
131 2
132 1
133 1
134 2
135 1
136 1
137 2
138 1
139 2
140 2
141 2
142 1
143 1
144 2
145 2
146 1
147 2
148 2
149 1
150 2
151 2
152 2
153 1
154 1
155 2
156 1
157 1
158 1
159 2
160 1
161 1
162 1
163 1
164 2
165 2
166 1
167 1
168 2
169 2
170 1
171 1
172 2
173 2
174 2
175 1
176 1
177 1
178 1
179 1
180 2
181 2
182 1
183 2
184 2
185 2
186 1
187 1
188 1
189 2
190 1
191 2
192 1
193 1
194 1
195 1
196 2
197 2
198 1
199 1
200 2
201 1
202 2
203 1
204 1
205 2
206 2
207 2
208 2
209 1
210 2
211 1
212 1
213 1
214 1
215 2
216 2
217 2
218 1
219 2
220 2
221 1
222 1
223 1
224 1
225 1
226 1
227 1
228 1
229 2
230 2
231 2
232 1
233 2
234 1
235 1
236 2
237 1
238 1
239 2
240 2
241 1
242 1
243 1
244 1
245 2
246 2
247 1
248 2
249 1
250 2
251 2
252 1
253 2
254 1
255 2
256 2
257 2
258 2
259 2
260 1
261 2
262 2
263 1
264 1
265 1
266 1
267 1
268 1
269 1
270 2
271 2
272 1
273 2
274 1
275 2
276 2
277 2
278 2
279 2
280 1
281 1
282 2
283 2
284 2
285 1
286 2
287 1
288 1
289 2
290 1
291 1
292 2
293 1
294 1
295 2
296 2
297 1
298 1
299 1
300 1
301 1
302 1
303 1
304 1
305 2
306 1
307 1
308 2
309 1
310 1
311 1
312 1
313 1
314 1
315 1
316 1
317 1
318 2
319 2
320 1
321 2
322 1
323 2
324 1
325 2
326 1
327 1
328 1
329 2
330 2
331 2
332 1
333 1
334 2
335 2
336 2
337 1
338 1
339 2
340 2
341 2
342 2
343 2
344 2
345 2
346 2
347 1
348 1
349 1
350 2
351 2
352 2
353 2
354 2
355 1
356 2
357 2
358 2
359 1
360 1
361 1
362 2
363 2
364 1
365 1
366 2
367 2
368 1
369 1
370 2
371 2
372 2
373 2
374 1
375 2
376 2
377 2
378 2
379 1
380 2
381 1
382 2
383 2
384 2
385 2
386 1
387 2
388 2
389 1
390 2
391 2
392 1
393 2
394 2
395 1
396 2
397 1
398 2
399 2
400 1
401 1
402 2
403 2
404 1
405 1
406 2
407 1
408 1
409 2
410 2
411 2
412 1
413 1
414 1
415 2
416 2
417 1
418 2
419 2
420 2
421 2
422 2
423 1
424 1
425 1
426 1
427 2
428 2
429 2
430 2
431 2
432 2
433 1
434 2
435 2
436 2
437 2
438 2
439 2
440 1
441 2
442 2
443 2
444 2
445 1
446 1
447 1
448 2
449 1
450 2
451 2
452 2
453 1
454 2
455 2
456 1
457 2
458 2
459 1
460 2
461 1
462 1
463 2
464 2
465 2
466 2
467 2
468 2
469 2
470 1
471 2
472 1
473 2
474 1
475 2
476 1
477 2
478 1
479 1
480 1
481 2
482 1
483 1
484 1
485 1
486 1
487 2
488 2
489 1
490 2
491 2
492 1
493 2
494 2
495 1
496 1
497 1
498 1
499 2
500 2
